# Generated by ConicBenchmarkUtilities.jl
VER
2

OBJSENSE
MIN

VAR
230 1
F 230

INT
84
11
12
13
14
15
16
17
18
19
20
21
22
23
24
25
26
27
28
29
30
31
32
33
34
45
46
47
48
49
50
51
52
53
54
55
56
57
58
59
60
61
62
63
64
133
134
135
136
137
138
139
140
142
143
144
146
147
148
150
151
152
154
155
156
158
159
160
162
163
164
166
167
168
170
171
172
173
174
175
176
177
178
179
180

CON
717 689
L= 1
L= 1
L= 1
L= 1
L= 1
L= 1
L= 1
L= 1
L= 1
L= 1
L= 1
L= 1
L= 1
L= 1
L= 1
L= 1
L= 1
L= 1
L= 1
L= 1
L= 1
L= 1
L= 1
L= 1
L= 1
L= 1
L= 1
L= 1
L= 1
L= 1
L= 1
L= 1
L= 1
L= 1
L= 1
L= 1
L+ 1
L+ 1
L+ 1
L+ 1
L+ 1
L+ 1
L+ 1
L+ 1
L+ 1
L+ 1
L+ 1
L= 1
L= 1
L= 1
L= 1
L= 1
L= 1
L= 1
L= 1
L= 1
L= 1
L= 1
L= 1
L= 1
L= 1
L= 1
L= 1
L= 1
L= 1
L= 1
L= 1
L+ 1
L+ 1
L+ 1
L+ 1
L+ 1
L+ 1
L+ 1
L+ 1
L+ 1
L+ 1
L+ 1
L+ 1
L+ 1
L+ 1
L+ 1
L+ 1
L+ 1
L+ 1
L+ 1
L+ 1
L+ 1
L+ 1
L+ 1
L+ 1
L+ 1
L+ 1
L+ 1
L+ 1
L+ 1
L+ 1
L+ 1
L+ 1
L+ 1
L+ 1
L+ 1
L+ 1
L+ 1
L+ 1
L+ 1
L+ 1
L+ 1
L+ 1
L+ 1
L+ 1
L+ 1
L+ 1
L+ 1
L+ 1
L+ 1
L+ 1
L+ 1
L+ 1
L+ 1
L+ 1
L+ 1
L+ 1
L+ 1
L+ 1
L+ 1
L+ 1
L+ 1
L+ 1
L+ 1
L+ 1
L+ 1
L+ 1
L+ 1
L+ 1
L+ 1
L+ 1
L+ 1
L+ 1
L+ 1
L+ 1
L+ 1
L+ 1
L+ 1
L+ 1
L+ 1
L+ 1
L+ 1
L+ 1
L+ 1
L+ 1
L+ 1
L+ 1
L+ 1
L+ 1
L+ 1
L+ 1
L+ 1
L+ 1
L+ 1
L+ 1
L+ 1
L+ 1
L+ 1
L+ 1
L+ 1
L+ 1
L+ 1
L+ 1
L+ 1
L+ 1
L+ 1
L+ 1
L+ 1
L+ 1
L+ 1
L+ 1
L+ 1
L+ 1
L+ 1
L+ 1
L+ 1
L+ 1
L+ 1
L+ 1
L+ 1
L+ 1
L+ 1
L+ 1
L+ 1
L+ 1
L+ 1
L+ 1
L+ 1
L+ 1
L+ 1
L+ 1
L+ 1
L+ 1
L+ 1
L+ 1
L+ 1
L+ 1
L+ 1
L+ 1
L+ 1
L+ 1
L+ 1
L+ 1
L+ 1
L+ 1
L+ 1
L+ 1
L+ 1
L+ 1
L+ 1
L+ 1
L+ 1
L+ 1
L+ 1
L+ 1
L+ 1
L+ 1
L+ 1
L+ 1
L+ 1
L+ 1
L+ 1
L+ 1
L+ 1
L+ 1
L+ 1
L+ 1
L+ 1
L+ 1
L+ 1
L+ 1
L+ 1
L+ 1
L+ 1
L+ 1
L+ 1
L+ 1
L+ 1
L+ 1
L+ 1
L+ 1
L= 1
L= 1
L= 1
L= 1
L= 1
L= 1
L= 1
L= 1
L= 1
L= 1
L= 1
L= 1
L= 1
L= 1
L= 1
L= 1
L= 1
L= 1
L= 1
L= 1
L= 1
L= 1
EXP 3
L+ 1
L+ 1
L+ 1
EXP 3
L+ 1
L+ 1
L+ 1
L+ 1
L+ 1
L+ 1
L+ 1
EXP 3
L+ 1
L+ 1
L+ 1
L+ 1
L+ 1
L+ 1
L+ 1
L+ 1
L+ 1
L+ 1
EXP 3
L+ 1
L+ 1
L+ 1
EXP 3
L+ 1
L+ 1
L+ 1
EXP 3
L+ 1
L+ 1
L+ 1
L+ 1
L+ 1
L+ 1
L+ 1
L+ 1
L+ 1
L+ 1
L+ 1
EXP 3
L+ 1
L+ 1
L+ 1
L+ 1
L+ 1
L+ 1
L+ 1
L+ 1
L+ 1
L+ 1
EXP 3
L+ 1
L+ 1
L+ 1
EXP 3
L+ 1
L+ 1
L+ 1
EXP 3
L+ 1
EXP 3
L+ 1
L+ 1
L+ 1
L+ 1
L+ 1
L+ 1
L+ 1
L+ 1
L+ 1
L+ 1
L+ 1
L+ 1
EXP 3
L+ 1
L+ 1
L+ 1
EXP 3
L+ 1
L+ 1
L+ 1
EXP 3
L+ 1
L+ 1
L+ 1
L= 1
L+ 1
L+ 1
L+ 1
L+ 1
L+ 1
L+ 1
L+ 1
L+ 1
L+ 1
L+ 1
L+ 1
L+ 1
L+ 1
L+ 1
L+ 1
L+ 1
L+ 1
L+ 1
L+ 1
L+ 1
L+ 1
L+ 1
L+ 1
L+ 1
L+ 1
L+ 1
L+ 1
L+ 1
L+ 1
L+ 1
L+ 1
L+ 1
L+ 1
L+ 1
L+ 1
L+ 1
L+ 1
L+ 1
L+ 1
L+ 1
L+ 1
L+ 1
L+ 1
L+ 1
L+ 1
L+ 1
L+ 1
L+ 1
L+ 1
L+ 1
L+ 1
L+ 1
L+ 1
L+ 1
L+ 1
L+ 1
L+ 1
L+ 1
L+ 1
L+ 1
L+ 1
L+ 1
L+ 1
L+ 1
L+ 1
L+ 1
L+ 1
L+ 1
L+ 1
L+ 1
L+ 1
L+ 1
L+ 1
L+ 1
L+ 1
L+ 1
L+ 1
L+ 1
L+ 1
L+ 1
L+ 1
L+ 1
L+ 1
L+ 1
L+ 1
L+ 1
L+ 1
L+ 1
L+ 1
L+ 1
L+ 1
L+ 1
L+ 1
L+ 1
L+ 1
L+ 1
L+ 1
L+ 1
L+ 1
L+ 1
L+ 1
L+ 1
L+ 1
L+ 1
L+ 1
L+ 1
L+ 1
L+ 1
L+ 1
L+ 1
L+ 1
L+ 1
L+ 1
L+ 1
L+ 1
L+ 1
L+ 1
L+ 1
L+ 1
L+ 1
L+ 1
L+ 1
L+ 1
L+ 1
L+ 1
L+ 1
L+ 1
L+ 1
L+ 1
L+ 1
L+ 1
L+ 1
L+ 1
L+ 1
L+ 1
L+ 1
L+ 1
L+ 1
L+ 1
L+ 1
L+ 1
L+ 1
L+ 1
L+ 1
L+ 1
L+ 1
L+ 1
L+ 1
L+ 1
L+ 1
L+ 1
L+ 1
L+ 1
L+ 1
L+ 1
L+ 1
L+ 1
L+ 1
L+ 1
L+ 1
L+ 1
L+ 1
L+ 1
L+ 1
L+ 1
L+ 1
L+ 1
L+ 1
L+ 1
L+ 1
L+ 1
L+ 1
L+ 1
L+ 1
L+ 1
L+ 1
L+ 1
L+ 1
L+ 1
L+ 1
L+ 1
L+ 1
L+ 1
L+ 1
L+ 1
L+ 1
L+ 1
L+ 1
L+ 1
L+ 1
L+ 1
L+ 1
L+ 1
L+ 1
L+ 1
L+ 1
L+ 1
L+ 1
L+ 1
L+ 1
L+ 1
L+ 1
L+ 1
L+ 1
L+ 1
L+ 1
L+ 1
L+ 1
L+ 1
L+ 1
L+ 1
L+ 1
L+ 1
L+ 1
L+ 1
L+ 1
L+ 1
L+ 1
L+ 1
L+ 1
L+ 1
L+ 1
L+ 1
L+ 1
L+ 1
L+ 1
L+ 1
L+ 1
L+ 1
L+ 1
L+ 1
L+ 1
L+ 1
L+ 1
L+ 1
L+ 1
L+ 1
L+ 1
L+ 1
L+ 1
L+ 1
L+ 1
L+ 1
L+ 1
L+ 1
L+ 1
L+ 1
L+ 1
L+ 1
L+ 1
L+ 1
L+ 1
L+ 1
L+ 1
L+ 1
L+ 1
L+ 1
L+ 1
L+ 1
L+ 1
L+ 1
L+ 1
L+ 1
L+ 1
L+ 1
L+ 1
L+ 1
L+ 1
L+ 1
L+ 1
L+ 1
L+ 1
L+ 1
L+ 1
L+ 1
L+ 1
L+ 1
L+ 1
L+ 1
L+ 1
L+ 1
L+ 1
L+ 1
L+ 1
L+ 1
L+ 1
L+ 1
L+ 1
L+ 1
L+ 1
L+ 1
L+ 1
L+ 1
L+ 1
L+ 1
L+ 1
L+ 1
L+ 1
L+ 1
L+ 1
L+ 1
L+ 1
L+ 1
L+ 1
L+ 1
L+ 1
L+ 1
L+ 1
L+ 1
L+ 1
L+ 1
L+ 1
L+ 1
L+ 1
L+ 1
L+ 1
L+ 1
L+ 1
L+ 1
L+ 1
L+ 1
L+ 1
L+ 1
L+ 1
L+ 1
L+ 1
L+ 1
L+ 1
L+ 1
L+ 1

OBJACOORD
1
65 -1.0

ACOORD
1307
0 0 -10.0
1 0 1.0
42 0 -1.0
47 0 1.0
246 0 -10.0
414 0 1.0
0 1 -15.0
6 1 1.0
43 1 -1.0
49 1 1.0
246 1 -15.0
419 1 1.0
0 2 -18.0
10 2 1.0
44 2 -1.0
51 2 1.0
246 2 -18.0
423 2 1.0
0 3 -19.0
22 3 1.0
45 3 -1.0
55 3 1.0
246 3 -19.0
435 3 1.0
0 4 35.0
26 4 1.0
36 4 1.0
56 4 -1.0
439 4 1.0
0 5 28.0
28 5 1.0
37 5 1.0
57 5 -1.0
441 5 1.0
0 6 -16.0
29 6 1.0
46 6 -1.0
58 6 1.0
246 6 -16.0
442 6 1.0
0 7 2.0
32 7 1.0
38 7 1.0
255 7 -1.0
445 7 1.0
0 8 3.0
33 8 1.0
39 8 1.0
256 8 -1.0
446 8 1.0
0 9 5.0
34 9 1.0
40 9 1.0
257 9 -1.0
447 9 1.0
0 10 4.0
35 10 1.0
41 10 1.0
258 10 -1.0
448 10 1.0
0 11 -6.0
71 11 -148.75
75 11 -148.75
151 11 -25.0
247 11 1.0
502 11 1.0
503 11 -1.0
0 12 -40.0
72 12 -148.75
76 12 -148.75
152 12 15.0
247 12 1.0
504 12 1.0
505 12 -1.0
0 13 -46.0
73 13 -148.75
77 13 -148.75
153 13 15.0
247 13 1.0
506 13 1.0
507 13 -1.0
0 14 -7.0
79 14 -254.045833333333
83 14 -166.25
155 14 -56.0
248 14 1.0
510 14 1.0
511 14 -1.0
0 15 -30.0
80 15 -254.045833333333
84 15 -166.25
156 15 -36.0
248 15 1.0
512 15 1.0
513 15 -1.0
0 16 -37.0
81 16 -254.045833333333
85 16 -166.25
157 16 -36.0
248 16 1.0
514 16 1.0
515 16 -1.0
0 17 -7.0
87 17 -20.4166666666667
91 17 -20.4166666666667
95 17 -20.4166666666667
99 17 -20.4166666666667
159 17 -10.0
249 17 1.0
518 17 1.0
519 17 -1.0
0 18 -15.0
88 18 -20.4166666666667
92 18 -20.4166666666667
96 18 -20.4166666666667
100 18 -20.4166666666667
249 18 1.0
520 18 1.0
521 18 -1.0
0 19 -22.0
89 19 -20.4166666666667
93 19 -20.4166666666667
97 19 -20.4166666666667
101 19 -20.4166666666667
249 19 1.0
522 19 1.0
523 19 -1.0
0 20 -11.0
103 20 -18.75
107 20 -18.75
163 20 -10.0
250 20 1.0
526 20 1.0
527 20 -1.0
0 21 -13.0
104 21 -18.75
108 21 -18.75
164 21 -5.0
250 21 1.0
528 21 1.0
529 21 -1.0
0 22 -24.0
105 22 -18.75
109 22 -18.75
165 22 -5.0
250 22 1.0
530 22 1.0
531 22 -1.0
0 23 -10.0
111 23 -17.8125
115 23 -17.8125
119 23 -17.8125
123 23 -17.8125
167 23 -15.0
251 23 1.0
534 23 1.0
535 23 -1.0
0 24 -13.0
112 24 -17.8125
116 24 -17.8125
120 24 -17.8125
124 24 -17.8125
168 24 -5.0
251 24 1.0
536 24 1.0
537 24 -1.0
0 25 -23.0
113 25 -17.8125
117 25 -17.8125
121 25 -17.8125
125 25 -17.8125
169 25 -5.0
251 25 1.0
538 25 1.0
539 25 -1.0
0 26 -9.0
127 26 -66.9375
131 26 -15.9375
171 26 -29.0
252 26 1.0
542 26 1.0
543 26 -1.0
0 27 -30.0
128 27 -66.9375
132 27 -15.9375
172 27 6.0
252 27 1.0
544 27 1.0
545 27 -1.0
0 28 -39.0
129 28 -66.9375
133 28 -15.9375
173 28 6.0
252 28 1.0
546 28 1.0
547 28 -1.0
0 29 -8.0
135 29 -94.4571428571429
139 29 -57.0
175 29 -29.0
253 29 1.0
550 29 1.0
551 29 -1.0
0 30 -20.0
136 30 -94.4571428571429
140 30 -57.0
176 30 -4.0
253 30 1.0
552 30 1.0
553 30 -1.0
0 31 -28.0
137 31 -94.4571428571429
141 31 -57.0
177 31 -4.0
253 31 1.0
554 31 1.0
555 31 -1.0
0 32 -8.0
143 32 -39.4285714285714
147 32 -39.4285714285714
179 32 -15.0
254 32 1.0
558 32 1.0
559 32 -1.0
0 33 -15.0
144 33 -39.4285714285714
148 33 -39.4285714285714
180 33 5.0
254 33 1.0
560 33 1.0
561 33 -1.0
0 34 -23.0
145 34 -39.4285714285714
149 34 -39.4285714285714
181 34 5.0
254 34 1.0
562 34 1.0
563 34 -1.0
0 35 5.0
261 35 -1.0
635 35 1.0
0 36 200.0
330 36 -1.0
331 36 1.0
332 36 -1.0
333 36 1.0
336 36 -1.0
668 36 1.0
0 37 250.0
340 37 -1.0
342 37 -1.0
669 37 1.0
0 38 200.0
346 38 -1.0
348 38 -1.0
670 38 1.0
0 39 700.0
352 39 -1.0
356 39 -1.0
359 39 -1.0
671 39 1.0
0 40 400.0
360 40 -1.0
361 40 1.0
363 40 -1.0
672 40 1.0
0 41 500.0
364 41 -1.0
365 41 1.0
367 41 -1.0
673 41 1.0
0 42 400.0
371 42 -1.0
373 42 -1.0
674 42 1.0
0 43 600.0
377 43 -1.0
379 43 -1.0
675 43 1.0
0 44 700.0
383 44 -1.0
385 44 -1.0
676 44 1.0
0 45 -5.0
272 45 -1.0
273 45 10.0
274 45 2.39789527279837
386 45 1.0
396 45 1.0
397 45 1.0
398 45 1.0
677 45 1.0
678 45 -1.0
0 46 -8.0
278 46 -1.0
279 46 10.0
280 46 2.87747432735804
386 46 1.0
396 46 1.0
397 46 1.0
398 46 1.0
679 46 1.0
680 46 -1.0
0 47 -6.0
281 47 -1.0
282 47 -1.0
283 47 2.87747432735804
284 47 2.15810574551853
387 47 -1.0
396 47 -1.0
399 47 1.0
400 47 1.0
681 47 1.0
682 47 -1.0
0 48 -10.0
288 48 -1.0
289 48 2.87747432735804
290 48 2.03277599268042
390 48 -1.0
397 48 -1.0
401 48 1.0
683 48 1.0
684 48 -1.0
0 49 -6.0
291 49 -1.0
292 49 -1.0
293 49 -1.0
294 49 -1.0
295 49 2.87747432735804
296 49 7.0
297 49 3.5
392 49 -1.0
398 49 -1.0
402 49 1.0
403 49 1.0
404 49 1.0
685 49 1.0
686 49 -1.0
0 50 -7.0
301 50 -1.0
302 50 2.15810574551853
303 50 1.43746550029693
387 50 1.0
388 50 -1.0
399 50 -1.0
405 50 1.0
687 50 1.0
688 50 -1.0
0 51 -4.0
307 51 -1.0
308 51 2.15810574551853
309 51 1.03497516021379
387 51 1.0
389 51 -1.0
400 51 -1.0
406 51 1.0
689 51 1.0
690 51 -1.0
0 52 -5.0
313 52 -1.0
314 52 2.03277599268042
315 52 1.10947836929589
390 52 1.0
391 52 -1.0
401 52 -1.0
407 52 1.0
408 52 1.0
691 52 1.0
692 52 -1.0
0 53 -2.0
316 53 -1.0
317 53 -1.0
318 53 3.5
319 53 3.15
392 53 1.0
393 53 -1.0
402 53 -1.0
693 53 1.0
694 53 -1.0
0 54 -4.0
320 54 -1.0
321 54 -1.0
322 54 3.5
323 54 2.1
392 54 1.0
394 54 -1.0
403 54 -1.0
409 54 1.0
410 54 1.0
695 54 1.0
696 54 -1.0
0 55 -3.0
327 55 -1.0
328 55 3.5
329 55 1.6544851364539
392 55 1.0
395 55 -1.0
404 55 -1.0
411 55 1.0
412 55 1.0
413 55 1.0
697 55 1.0
698 55 -1.0
0 56 -7.0
330 56 -1.0
331 56 -1.0
332 56 -1.0
333 56 -1.0
334 56 1.43746550029693
335 56 5.0
336 56 5.0
388 56 1.0
405 56 -1.0
699 56 1.0
700 56 -1.0
0 57 -3.0
340 57 -1.0
341 57 1.03497516021379
342 57 0.710483612536911
389 57 1.0
406 57 -1.0
701 57 1.0
702 57 -1.0
0 58 -2.0
346 58 -1.0
347 58 1.10947836929589
348 58 0.522508489006913
391 58 1.0
407 58 -1.0
703 58 1.0
704 58 -1.0
0 59 -4.0
352 59 -1.0
356 59 -1.0
357 59 1.10947836929589
358 59 8.15
359 59 1.43894002153683
391 59 1.0
393 59 1.0
408 59 -1.0
705 59 1.0
706 59 -1.0
0 60 -2.0
360 60 -1.0
361 60 -1.0
362 60 2.1
363 60 2.1
394 60 1.0
409 60 -1.0
707 60 1.0
708 60 -1.0
0 61 -3.0
364 61 -1.0
365 61 -1.0
366 61 2.1
367 61 2.1
394 61 1.0
410 61 -1.0
709 61 1.0
710 61 -1.0
0 62 -5.0
371 62 -1.0
372 62 1.6544851364539
373 62 0.732188035236726
395 62 1.0
411 62 -1.0
711 62 1.0
712 62 -1.0
0 63 -2.0
377 63 -1.0
378 63 1.6544851364539
379 63 0.781000570919175
395 63 1.0
412 63 -1.0
713 63 1.0
714 63 -1.0
0 64 -8.0
383 64 -1.0
384 64 1.6544851364539
385 64 0.829813106601623
395 64 1.0
413 64 -1.0
715 64 1.0
716 64 -1.0
0 65 -1.0
1 66 -0.2
449 66 1.0
2 67 1.0
47 67 -1.0
59 67 1.0
150 67 -1.0
151 67 -1.0
152 67 -1.0
153 67 -1.0
415 67 1.0
2 68 -0.2
70 68 0.8
71 68 0.85
72 68 0.8
73 68 0.85
74 68 -0.8
75 68 -0.85
76 68 -0.8
77 68 -0.85
450 68 1.0
3 69 1.0
47 69 -1.0
60 69 1.0
154 69 -1.0
155 69 -1.0
156 69 -1.0
157 69 -1.0
416 69 1.0
3 70 -0.2
67 70 -1.0
78 70 0.9
79 70 0.95
80 70 0.9
81 70 0.95
82 70 -0.9
83 70 -0.95
84 70 -0.9
85 70 -0.95
451 70 1.0
4 71 1.0
48 71 1.0
59 71 -1.0
417 71 1.0
4 72 -0.2
70 72 -1.0
71 72 -1.0
72 72 -1.0
73 72 -1.0
74 72 1.0
75 72 1.0
76 72 1.0
77 72 1.0
452 72 1.0
5 73 1.0
48 73 -1.0
255 73 1.0
418 73 1.0
5 74 -0.2
453 74 1.0
6 75 -0.5
454 75 1.0
7 76 1.0
49 76 -1.0
60 76 1.0
154 76 -1.0
155 76 -1.0
156 76 -1.0
157 76 -1.0
420 76 1.0
7 77 -0.5
67 77 1.0
455 77 1.0
8 78 1.0
50 78 1.0
60 78 -1.0
421 78 1.0
8 79 -0.7
78 79 -1.0
79 79 -1.0
80 79 -1.0
81 79 -1.0
82 79 1.0
83 79 1.0
84 79 1.0
85 79 1.0
456 79 1.0
9 80 1.0
50 80 -1.0
256 80 1.0
422 80 1.0
9 81 -0.7
457 81 1.0
10 82 -1.2
458 82 1.0
11 83 1.0
51 83 -1.0
61 83 1.0
158 83 -1.0
159 83 -1.0
160 83 -1.0
161 83 -1.0
424 83 1.0
11 84 -1.2
86 84 0.85
87 84 0.98
88 84 0.85
89 84 0.98
90 84 0.85
91 84 0.98
92 84 0.85
93 84 0.98
94 84 -0.85
95 84 -0.98
96 84 -0.85
97 84 -0.98
98 84 -0.85
99 84 -0.98
100 84 -0.85
101 84 -0.98
459 84 1.0
12 85 1.0
49 85 1.0
61 85 -1.0
425 85 1.0
12 86 -0.5
86 86 -1.0
87 86 -1.0
88 86 -1.0
89 86 -1.0
94 86 1.0
95 86 1.0
96 86 1.0
97 86 1.0
460 86 1.0
13 87 1.0
50 87 1.0
61 87 -1.0
426 87 1.0
13 88 -0.7
90 88 -1.0
91 88 -1.0
92 88 -1.0
93 88 -1.0
98 88 1.0
99 88 1.0
100 88 1.0
101 88 1.0
461 88 1.0
14 89 1.0
51 89 -1.0
62 89 1.0
162 89 -1.0
163 89 -1.0
164 89 -1.0
165 89 -1.0
427 89 1.0
14 90 -1.2
102 90 0.85
103 90 0.9
104 90 0.85
105 90 0.9
106 90 -0.85
107 90 -0.9
108 90 -0.85
109 90 -0.9
462 90 1.0
15 91 1.0
52 91 1.0
62 91 -1.0
428 91 1.0
15 92 -1.2
102 92 -1.0
103 92 -1.0
104 92 -1.0
105 92 -1.0
106 92 1.0
107 92 1.0
108 92 1.0
109 92 1.0
463 92 1.0
16 93 1.0
52 93 -1.0
64 93 1.0
170 93 -1.0
171 93 -1.0
172 93 -1.0
173 93 -1.0
429 93 1.0
16 94 -1.2
68 94 -1.0
126 94 0.8
127 94 0.85
128 94 0.8
129 94 0.85
130 94 -0.8
131 94 -0.85
132 94 -0.8
133 94 -0.85
464 94 1.0
17 95 1.0
52 95 -1.0
63 95 1.0
166 95 -1.0
167 95 -1.0
168 95 -1.0
169 95 -1.0
430 95 1.0
17 96 -1.2
110 96 0.75
111 96 0.95
112 96 0.9
113 96 0.95
114 96 0.75
115 96 0.95
116 96 0.9
117 96 0.95
118 96 -0.75
119 96 -0.95
120 96 -0.9
121 96 -0.95
122 96 -0.75
123 96 -0.95
124 96 -0.9
125 96 -0.95
465 96 1.0
18 97 1.0
53 97 1.0
63 97 -1.0
431 97 1.0
18 98 -0.3
110 98 -1.0
111 98 -1.0
112 98 -1.0
113 98 -1.0
118 98 1.0
119 98 1.0
120 98 1.0
121 98 1.0
466 98 1.0
19 99 1.0
54 99 1.0
63 99 -1.0
432 99 1.0
19 100 -0.9
114 100 -1.0
115 100 -1.0
116 100 -1.0
117 100 -1.0
122 100 1.0
123 100 1.0
124 100 1.0
125 100 1.0
467 100 1.0
20 101 1.0
53 101 -1.0
257 101 1.0
433 101 1.0
20 102 -0.3
468 102 1.0
21 103 1.0
54 103 -1.0
258 103 1.0
434 103 1.0
21 104 -0.9
469 104 1.0
22 105 -0.4
470 105 1.0
23 106 1.0
55 106 -1.0
64 106 1.0
170 106 -1.0
171 106 -1.0
172 106 -1.0
173 106 -1.0
436 106 1.0
23 107 -0.4
68 107 1.0
471 107 1.0
24 108 1.0
55 108 -1.0
65 108 1.0
174 108 -1.0
175 108 -1.0
176 108 -1.0
177 108 -1.0
437 108 1.0
24 109 -0.4
69 109 -1.0
134 109 0.85
135 109 0.95
136 109 0.85
137 109 0.95
138 109 -0.85
139 109 -0.95
140 109 -0.85
141 109 -0.95
472 109 1.0
25 110 1.0
56 110 1.0
64 110 -1.0
438 110 1.0
25 111 -1.6
126 111 -1.0
127 111 -1.0
128 111 -1.0
129 111 -1.0
130 111 1.0
131 111 1.0
132 111 1.0
133 111 1.0
473 111 1.0
26 112 -1.6
474 112 1.0
27 113 1.0
57 113 1.0
65 113 -1.0
440 113 1.0
27 114 -1.1
134 114 -1.0
135 114 -1.0
136 114 -1.0
137 114 -1.0
138 114 1.0
139 114 1.0
140 114 1.0
141 114 1.0
475 114 1.0
28 115 -1.1
476 115 1.0
29 116 -0.7
477 116 1.0
30 117 1.0
58 117 -1.0
66 117 1.0
178 117 -1.0
179 117 -1.0
180 117 -1.0
181 117 -1.0
443 117 1.0
30 118 -0.7
142 118 0.8
143 118 0.92
144 118 0.8
145 118 0.92
146 118 -0.8
147 118 -0.92
148 118 -0.8
149 118 -0.92
478 118 1.0
31 119 1.0
65 119 1.0
66 119 -1.0
174 119 -1.0
175 119 -1.0
176 119 -1.0
177 119 -1.0
444 119 1.0
31 120 -0.7
69 120 1.0
142 120 -1.0
143 120 -1.0
144 120 -1.0
145 120 -1.0
146 120 1.0
147 120 1.0
148 120 1.0
149 120 1.0
479 120 1.0
32 121 -0.2
480 121 1.0
33 122 -0.7
481 122 1.0
34 123 -0.3
482 123 1.0
35 124 -0.9
483 124 1.0
59 125 -1.0
484 125 1.0
60 126 -1.0
485 126 1.0
61 127 -1.0
486 127 1.0
62 128 -1.0
487 128 1.0
63 129 -1.0
488 129 1.0
64 130 -1.0
489 130 1.0
65 131 -1.0
490 131 1.0
66 132 -1.0
491 132 1.0
70 133 -148.75
74 133 -148.75
150 133 -25.0
247 133 1.0
500 133 1.0
501 133 -1.0
78 134 -254.045833333333
82 134 -166.25
154 134 -56.0
248 134 1.0
508 134 1.0
509 134 -1.0
86 135 -20.4166666666667
90 135 -20.4166666666667
94 135 -20.4166666666667
98 135 -20.4166666666667
158 135 -10.0
249 135 1.0
516 135 1.0
517 135 -1.0
102 136 -18.75
106 136 -18.75
162 136 -10.0
250 136 1.0
524 136 1.0
525 136 -1.0
110 137 -17.8125
114 137 -17.8125
118 137 -17.8125
122 137 -17.8125
166 137 -15.0
251 137 1.0
532 137 1.0
533 137 -1.0
126 138 -66.9375
130 138 -15.9375
170 138 -29.0
252 138 1.0
540 138 1.0
541 138 -1.0
134 139 -94.4571428571429
138 139 -57.0
174 139 -29.0
253 139 1.0
548 139 1.0
549 139 -1.0
142 140 -39.4285714285714
146 140 -39.4285714285714
178 140 -15.0
254 140 1.0
556 140 1.0
557 140 -1.0
182 141 -1.0
183 141 -1.0
184 141 -1.0
185 141 -1.0
214 141 1.0
215 141 1.0
216 141 1.0
217 141 1.0
246 141 -1.0
492 141 1.0
182 142 -46.0
564 142 1.0
565 142 -1.0
183 143 -40.0
215 143 -6.0
566 143 1.0
567 143 -1.0
184 144 -6.0
216 144 -40.0
568 144 1.0
569 144 -1.0
186 145 -1.0
187 145 -1.0
188 145 -1.0
189 145 -1.0
218 145 1.0
219 145 1.0
220 145 1.0
221 145 1.0
246 145 -1.0
493 145 1.0
186 146 -37.0
572 146 1.0
573 146 -1.0
187 147 -30.0
219 147 -7.0
574 147 1.0
575 147 -1.0
188 148 -7.0
220 148 -30.0
576 148 1.0
577 148 -1.0
190 149 -1.0
191 149 -1.0
192 149 -1.0
193 149 -1.0
222 149 1.0
223 149 1.0
224 149 1.0
225 149 1.0
246 149 -1.0
494 149 1.0
190 150 -22.0
580 150 1.0
581 150 -1.0
191 151 -15.0
223 151 -7.0
582 151 1.0
583 151 -1.0
192 152 -7.0
224 152 -15.0
584 152 1.0
585 152 -1.0
194 153 -1.0
195 153 -1.0
196 153 -1.0
197 153 -1.0
226 153 1.0
227 153 1.0
228 153 1.0
229 153 1.0
246 153 -1.0
495 153 1.0
194 154 -24.0
588 154 1.0
589 154 -1.0
195 155 -13.0
227 155 -11.0
590 155 1.0
591 155 -1.0
196 156 -11.0
228 156 -13.0
592 156 1.0
593 156 -1.0
198 157 -1.0
199 157 -1.0
200 157 -1.0
201 157 -1.0
230 157 1.0
231 157 1.0
232 157 1.0
233 157 1.0
246 157 -1.0
496 157 1.0
198 158 -23.0
596 158 1.0
597 158 -1.0
199 159 -13.0
231 159 -10.0
598 159 1.0
599 159 -1.0
200 160 -10.0
232 160 -13.0
600 160 1.0
601 160 -1.0
202 161 -1.0
203 161 -1.0
204 161 -1.0
205 161 -1.0
234 161 1.0
235 161 1.0
236 161 1.0
237 161 1.0
246 161 -1.0
497 161 1.0
202 162 -39.0
604 162 1.0
605 162 -1.0
203 163 -30.0
235 163 -9.0
606 163 1.0
607 163 -1.0
204 164 -9.0
236 164 -30.0
608 164 1.0
609 164 -1.0
206 165 -1.0
207 165 -1.0
208 165 -1.0
209 165 -1.0
238 165 1.0
239 165 1.0
240 165 1.0
241 165 1.0
246 165 -1.0
498 165 1.0
206 166 -28.0
612 166 1.0
613 166 -1.0
207 167 -20.0
239 167 -8.0
614 167 1.0
615 167 -1.0
208 168 -8.0
240 168 -20.0
616 168 1.0
617 168 -1.0
210 169 -1.0
211 169 -1.0
212 169 -1.0
213 169 -1.0
242 169 1.0
243 169 1.0
244 169 1.0
245 169 1.0
246 169 -1.0
499 169 1.0
210 170 -23.0
620 170 1.0
621 170 -1.0
211 171 -15.0
243 171 -8.0
622 171 1.0
623 171 -1.0
212 172 -8.0
244 172 -15.0
624 172 1.0
625 172 -1.0
217 173 -46.0
570 173 1.0
571 173 -1.0
221 174 -37.0
578 174 1.0
579 174 -1.0
225 175 -22.0
586 175 1.0
587 175 -1.0
229 176 -24.0
594 176 1.0
595 176 -1.0
233 177 -23.0
602 177 1.0
603 177 -1.0
237 178 -39.0
610 178 1.0
611 178 -1.0
241 179 -28.0
618 179 1.0
619 179 -1.0
245 180 -23.0
626 180 1.0
627 180 -1.0
255 181 -1.0
259 181 1.0
628 181 1.0
629 181 -1.0
256 182 -1.0
293 182 0.5
294 182 -0.5
296 182 -1.0
640 182 1.0
641 182 -1.0
257 183 -1.0
332 183 1.0
333 183 -1.0
335 183 -1.0
658 183 1.0
659 183 -1.0
258 184 -1.0
266 184 -1.0
660 184 1.0
661 184 -1.0
259 185 -1.0
269 185 1.0
273 185 -1.0
630 185 1.0
259 186 -1.0
275 186 1.0
279 186 -1.0
631 186 1.0
260 187 -1.0
272 187 -1.0
274 187 -1.0
632 187 1.0
260 188 -1.0
278 188 -1.0
280 188 -1.0
633 188 1.0
260 189 1.0
261 189 1.0
634 189 1.0
261 190 -1.0
262 190 1.0
636 190 1.0
262 191 -1.0
281 191 0.75
282 191 -0.75
283 191 -1.0
637 191 1.0
262 192 -1.0
285 192 1.0
289 192 -1.0
638 192 1.0
262 193 -1.0
291 193 1.0
292 193 -1.0
295 193 -1.0
639 193 1.0
263 194 1.0
281 194 -1.0
282 194 1.0
284 194 -1.0
642 194 1.0
263 195 -1.0
298 195 1.0
302 195 -1.0
645 195 1.0
263 196 -1.0
304 196 1.0
308 196 -1.0
646 196 1.0
264 197 1.0
291 197 -1.0
292 197 1.0
293 197 -1.0
294 197 1.0
297 197 -1.0
644 197 1.0
264 198 -1.0
316 198 0.9
317 198 -0.9
318 198 -1.0
647 198 1.0
264 199 -1.0
320 199 0.6
321 199 -0.6
322 199 -1.0
648 199 1.0
264 200 -1.0
324 200 1.0
328 200 -1.0
649 200 1.0
265 201 1.0
313 201 -1.0
315 201 -1.0
652 201 1.0
265 202 -1.0
343 202 1.0
347 202 -1.0
656 202 1.0
265 203 -1.0
349 203 1.0
357 203 -1.0
657 203 1.0
266 204 -1.0
316 204 -1.0
317 204 1.0
319 204 -1.0
653 204 1.0
266 205 1.0
353 205 1.0
358 205 -1.0
662 205 1.0
267 206 1.0
320 206 -1.0
321 206 1.0
323 206 -1.0
654 206 1.0
267 207 -1.0
360 207 1.0
361 207 -1.0
362 207 -1.0
663 207 1.0
267 208 -1.0
364 208 1.0
365 208 -1.0
366 208 -1.0
664 208 1.0
268 209 1.0
327 209 -1.0
329 209 -1.0
655 209 1.0
268 210 -1.0
368 210 1.0
372 210 -1.0
665 210 1.0
268 211 -1.0
374 211 1.0
378 211 -1.0
666 211 1.0
268 212 -1.0
380 212 1.0
384 212 -1.0
667 212 1.0
271 213 1.0
272 213 1.0
277 214 1.0
278 214 1.2
287 215 1.0
288 215 1.5
288 216 -1.0
290 216 -1.0
310 216 1.0
314 216 -1.0
643 216 1.0
300 217 1.0
301 217 1.25
301 218 -1.0
303 218 -1.0
330 218 0.9
331 218 -0.9
334 218 -1.0
650 218 1.0
306 219 1.0
307 219 0.9
307 220 -1.0
309 220 -1.0
337 220 1.0
341 220 -1.0
651 220 1.0
312 221 1.0
313 221 1.0
326 222 1.0
327 222 1.1
339 223 1.0
340 223 1.0
345 224 1.0
346 224 0.7
351 225 1.0
352 225 0.65
355 226 1.0
356 226 0.65
370 227 1.0
371 227 0.75
376 228 1.0
377 228 0.8
382 229 1.0
383 229 0.85

BCOORD
313
36 -0.4
37 -0.3
38 -0.2
39 -0.5
40 -0.2
41 -0.3
42 35.0
43 36.0
44 25.0
45 24.0
46 30.0
70 148.75
71 148.75
72 148.75
73 148.75
74 148.75
75 148.75
76 148.75
77 148.75
78 254.045833333333
79 254.045833333333
80 254.045833333333
81 254.045833333333
82 166.25
83 166.25
84 166.25
85 166.25
86 20.4166666666667
87 20.4166666666667
88 20.4166666666667
89 20.4166666666667
90 20.4166666666667
91 20.4166666666667
92 20.4166666666667
93 20.4166666666667
94 20.4166666666667
95 20.4166666666667
96 20.4166666666667
97 20.4166666666667
98 20.4166666666667
99 20.4166666666667
100 20.4166666666667
101 20.4166666666667
102 18.75
103 18.75
104 18.75
105 18.75
106 18.75
107 18.75
108 18.75
109 18.75
110 17.8125
111 17.8125
112 17.8125
113 17.8125
114 17.8125
115 17.8125
116 17.8125
117 17.8125
118 17.8125
119 17.8125
120 17.8125
121 17.8125
122 17.8125
123 17.8125
124 17.8125
125 17.8125
126 66.9375
127 66.9375
128 66.9375
129 66.9375
130 15.9375
131 15.9375
132 15.9375
133 15.9375
134 94.4571428571429
135 94.4571428571429
136 94.4571428571429
137 94.4571428571429
138 57.0
139 57.0
140 57.0
141 57.0
142 39.4285714285714
143 39.4285714285714
144 39.4285714285714
145 39.4285714285714
146 39.4285714285714
147 39.4285714285714
148 39.4285714285714
149 39.4285714285714
150 35.0
151 35.0
152 35.0
153 35.0
154 96.0
155 96.0
156 96.0
157 96.0
158 25.0
159 25.0
160 25.0
161 25.0
162 25.0
163 25.0
164 25.0
165 25.0
166 25.0
167 25.0
168 25.0
169 25.0
170 49.0
171 49.0
172 49.0
173 49.0
174 54.0
175 54.0
176 54.0
177 54.0
178 30.0
179 30.0
180 30.0
181 30.0
182 46.0
183 46.0
184 46.0
185 46.0
186 37.0
187 37.0
188 37.0
189 37.0
190 22.0
191 22.0
192 22.0
193 22.0
194 24.0
195 24.0
196 24.0
197 24.0
198 23.0
199 23.0
200 23.0
201 23.0
202 39.0
203 39.0
204 39.0
205 39.0
206 28.0
207 28.0
208 28.0
209 28.0
210 23.0
211 23.0
212 23.0
213 23.0
246 4000.0
247 -1.0
248 -1.0
249 -1.0
250 -1.0
251 -1.0
252 -1.0
253 -1.0
254 -1.0
269 1.0
270 1.0
272 1.0
275 1.0
276 1.0
278 1.0
281 1.0
282 1.0
285 1.0
286 1.0
288 1.0
291 1.0
292 1.0
293 1.0
294 1.0
298 1.0
299 1.0
301 1.0
304 1.0
305 1.0
307 1.0
310 1.0
311 1.0
313 1.0
316 1.0
317 1.0
320 1.0
321 1.0
324 1.0
325 1.0
327 1.0
330 1.0
331 1.0
332 1.0
333 1.0
337 1.0
338 1.0
340 1.0
343 1.0
344 1.0
346 1.0
349 1.0
350 1.0
352 1.0
353 1.0
354 1.0
356 1.0
360 1.0
361 1.0
364 1.0
365 1.0
368 1.0
369 1.0
371 1.0
374 1.0
375 1.0
377 1.0
380 1.0
381 1.0
383 1.0
386 -1.0
501 1.0
503 1.0
505 1.0
507 1.0
509 1.0
511 1.0
513 1.0
515 1.0
517 1.0
519 1.0
521 1.0
523 1.0
525 1.0
527 1.0
529 1.0
531 1.0
533 1.0
535 1.0
537 1.0
539 1.0
541 1.0
543 1.0
545 1.0
547 1.0
549 1.0
551 1.0
553 1.0
555 1.0
557 1.0
559 1.0
561 1.0
563 1.0
565 1.0
567 1.0
569 1.0
571 1.0
573 1.0
575 1.0
577 1.0
579 1.0
581 1.0
583 1.0
585 1.0
587 1.0
589 1.0
591 1.0
593 1.0
595 1.0
597 1.0
599 1.0
601 1.0
603 1.0
605 1.0
607 1.0
609 1.0
611 1.0
613 1.0
615 1.0
617 1.0
619 1.0
621 1.0
623 1.0
625 1.0
627 1.0
629 10.0
641 7.0
659 5.0
661 5.0
678 1.0
680 1.0
682 1.0
684 1.0
686 1.0
688 1.0
690 1.0
692 1.0
694 1.0
696 1.0
698 1.0
700 1.0
702 1.0
704 1.0
706 1.0
708 1.0
710 1.0
712 1.0
714 1.0
716 1.0
